10J3M/DAT/10J3MULX-2.dat
10 3
41.0343 6.4058
46.4629 6.8164
3.1737 1.7815
39.9955 6.3242
1.5579 1.2482
33.6458 5.8005
19.5651 4.4232
20.2664 4.5018
34.1963 5.8478
26.3071 5.129
16.0928