10J3M/SOL/10J3MULX-2.sol
solution status: optimal solution found
objective value:                               88.735
x#1#2                                               1 	(obj:0)
x#2#2                               0.149493654405255 	(obj:0)
x#2#3                               0.850506345594745 	(obj:0)
x#3#2                                               1 	(obj:0)
x#4#1                               0.429135157947617 	(obj:0)
x#4#2                               0.570864842052383 	(obj:0)
x#5#1                               0.999999999999997 	(obj:0)
x#6#1                                               1 	(obj:0)
x#7#3                                               1 	(obj:0)
x#8#1                               0.107149014640295 	(obj:0)
x#8#2                               0.727759567285162 	(obj:0)
x#8#3                               0.165091418074543 	(obj:0)
x#9#1                                               1 	(obj:0)
x#10#3                                              1 	(obj:0)
z                                              88.735 	(obj:1)
